c 4 __LINUXTHREADS_OLD__
c 1 __UCLIBC_HAS_RPC__
c 2 __UCLIBC_HAS_THREADS_NATIVE__
c 3 __UCLIBC_HAS_XLOCALE__
c 7 __UCLIBC_HAS_LOCALE__
c 8 __LINUXTHREADS_NEW__
c 6 __UCLIBC_HAS_FULL_RPC__
c 5 __UCLIBC_HAS_THREADS__
p cnf 8 1
2 -4 -3 -6 -5 -1 7 8 1
